c nIsolatedPIs 0
c maxPI 128
p cnf 686 1675
c gate 129 23 -25 0
23 -129 0
-25 -129 0
-23 25 129 0
c gate 130 -23 25 0
-23 -130 0
25 -130 0
23 -25 130 0
c gate 131 -129 -130 0
-129 -131 0
-130 -131 0
129 130 131 0
c gate 132 -21 131 0
-21 -132 0
131 -132 0
21 -131 132 0
c gate 133 21 -131 0
21 -133 0
-131 -133 0
-21 131 133 0
c gate 134 -26 -27 0
-26 -134 0
-27 -134 0
26 27 134 0
c gate 135 26 27 0
26 -135 0
27 -135 0
-26 -27 135 0
c gate 136 -134 -135 0
-134 -136 0
-135 -136 0
134 135 136 0
c gate 137 -133 -136 0
-133 -137 0
-136 -137 0
133 136 137 0
c gate 138 -132 137 0
-132 -138 0
137 -138 0
132 -137 138 0
c gate 139 -23 -27 0
-23 -139 0
-27 -139 0
23 27 139 0
c gate 140 23 27 0
23 -140 0
27 -140 0
-23 -27 140 0
c gate 141 -139 -140 0
-139 -141 0
-140 -141 0
139 140 141 0
c gate 142 -22 -141 0
-22 -142 0
-141 -142 0
22 141 142 0
c gate 143 22 130 0
22 -143 0
130 -143 0
-22 -130 143 0
c gate 144 -21 -26 0
-21 -144 0
-26 -144 0
21 26 144 0
c gate 145 -129 144 0
-129 -145 0
144 -145 0
129 -144 145 0
c gate 146 -143 145 0
-143 -146 0
145 -146 0
143 -145 146 0
c gate 147 -142 146 0
-142 -147 0
146 -147 0
142 -146 147 0
c gate 148 -26 133 0
-26 -148 0
133 -148 0
26 -133 148 0
c gate 149 -23 -25 0
-23 -149 0
-25 -149 0
23 25 149 0
c gate 150 -21 26 0
-21 -150 0
26 -150 0
21 -26 150 0
c gate 151 149 150 0
149 -151 0
150 -151 0
-149 -150 151 0
c gate 152 -148 -151 0
-148 -152 0
-151 -152 0
148 151 152 0
c gate 153 -147 152 0
-147 -153 0
152 -153 0
147 -152 153 0
c gate 154 -138 153 0
-138 -154 0
153 -154 0
138 -153 154 0
c gate 155 -25 -154 0
-25 -155 0
-154 -155 0
25 154 155 0
c gate 156 -27 -155 0
-27 -156 0
-155 -156 0
27 155 156 0
c gate 157 -19 -20 0
-19 -157 0
-20 -157 0
19 20 157 0
c gate 158 -17 -18 0
-17 -158 0
-18 -158 0
17 18 158 0
c gate 159 -15 -16 0
-15 -159 0
-16 -159 0
15 16 159 0
c gate 160 -12 -14 0
-12 -160 0
-14 -160 0
12 14 160 0
c gate 161 -10 -11 0
-10 -161 0
-11 -161 0
10 11 161 0
c gate 162 -8 -9 0
-8 -162 0
-9 -162 0
8 9 162 0
c gate 163 -6 -7 0
-6 -163 0
-7 -163 0
6 7 163 0
c gate 164 -4 -5 0
-4 -164 0
-5 -164 0
4 5 164 0
c gate 165 -3 -128 0
-3 -165 0
-128 -165 0
3 128 165 0
c gate 166 164 -165 0
164 -166 0
-165 -166 0
-164 165 166 0
c gate 167 163 -166 0
163 -167 0
-166 -167 0
-163 166 167 0
c gate 168 162 -167 0
162 -168 0
-167 -168 0
-162 167 168 0
c gate 169 161 -168 0
161 -169 0
-168 -169 0
-161 168 169 0
c gate 170 160 -169 0
160 -170 0
-169 -170 0
-160 169 170 0
c gate 171 159 -170 0
159 -171 0
-170 -171 0
-159 170 171 0
c gate 172 158 -171 0
158 -172 0
-171 -172 0
-158 171 172 0
c gate 173 157 -172 0
157 -173 0
-172 -173 0
-157 172 173 0
c gate 174 157 158 0
157 -174 0
158 -174 0
-157 -158 174 0
c gate 175 -126 -127 0
-126 -175 0
-127 -175 0
126 127 175 0
c gate 176 163 175 0
163 -176 0
175 -176 0
-163 -175 176 0
c gate 177 164 165 0
164 -177 0
165 -177 0
-164 -165 177 0
c gate 178 176 177 0
176 -178 0
177 -178 0
-176 -177 178 0
c gate 179 159 160 0
159 -179 0
160 -179 0
-159 -160 179 0
c gate 180 161 162 0
161 -180 0
162 -180 0
-161 -162 180 0
c gate 181 179 180 0
179 -181 0
180 -181 0
-179 -180 181 0
c gate 182 178 181 0
178 -182 0
181 -182 0
-178 -181 182 0
c gate 183 174 182 0
174 -183 0
182 -183 0
-174 -182 183 0
c gate 184 -124 -125 0
-124 -184 0
-125 -184 0
124 125 184 0
c gate 185 -122 -123 0
-122 -185 0
-123 -185 0
122 123 185 0
c gate 186 -120 -121 0
-120 -186 0
-121 -186 0
120 121 186 0
c gate 187 -117 -119 0
-117 -187 0
-119 -187 0
117 119 187 0
c gate 188 -115 -116 0
-115 -188 0
-116 -188 0
115 116 188 0
c gate 189 -113 -114 0
-113 -189 0
-114 -189 0
113 114 189 0
c gate 190 -111 -112 0
-111 -190 0
-112 -190 0
111 112 190 0
c gate 191 -109 -110 0
-109 -191 0
-110 -191 0
109 110 191 0
c gate 192 -93 -94 0
-93 -192 0
-94 -192 0
93 94 192 0
c gate 193 -28 -29 0
-28 -193 0
-29 -193 0
28 29 193 0
c gate 194 28 33 0
28 -194 0
33 -194 0
-28 -33 194 0
c gate 195 -193 -194 0
-193 -195 0
-194 -195 0
193 194 195 0
c gate 196 -30 -31 0
-30 -196 0
-31 -196 0
30 31 196 0
c gate 197 -32 196 0
-32 -197 0
196 -197 0
32 -196 197 0
c gate 198 -195 197 0
-195 -198 0
197 -198 0
195 -197 198 0
c gate 199 -33 134 0
-33 -199 0
134 -199 0
33 -134 199 0
c gate 200 198 199 0
198 -200 0
199 -200 0
-198 -199 200 0
c gate 201 174 200 0
174 -201 0
200 -201 0
-174 -200 201 0
c gate 202 154 201 0
154 -202 0
201 -202 0
-154 -201 202 0
c gate 203 -91 -92 0
-91 -203 0
-92 -203 0
91 92 203 0
c gate 204 202 203 0
202 -204 0
203 -204 0
-202 -203 204 0
c gate 205 -89 -90 0
-89 -205 0
-90 -205 0
89 90 205 0
c gate 206 -87 -88 0
-87 -206 0
-88 -206 0
87 88 206 0
c gate 207 205 206 0
205 -207 0
206 -207 0
-205 -206 207 0
c gate 208 192 204 0
192 -208 0
204 -208 0
-192 -204 208 0
c gate 209 207 208 0
207 -209 0
208 -209 0
-207 -208 209 0
c gate 210 -84 -86 0
-84 -210 0
-86 -210 0
84 86 210 0
c gate 211 209 -210 0
209 -211 0
-210 -211 0
-209 210 211 0
c gate 212 205 -211 0
205 -212 0
-211 -212 0
-205 211 212 0
c gate 213 -82 -83 0
-82 -213 0
-83 -213 0
82 83 213 0
c gate 214 210 213 0
210 -214 0
213 -214 0
-210 -213 214 0
c gate 215 209 214 0
209 -215 0
214 -215 0
-209 -214 215 0
c gate 216 -73 -75 0
-73 -216 0
-75 -216 0
73 75 216 0
c gate 217 -80 -81 0
-80 -217 0
-81 -217 0
80 81 217 0
c gate 218 -78 -79 0
-78 -218 0
-79 -218 0
78 79 218 0
c gate 219 217 218 0
217 -219 0
218 -219 0
-217 -218 219 0
c gate 220 216 219 0
216 -220 0
219 -220 0
-216 -219 220 0
c gate 221 -67 -68 0
-67 -221 0
-68 -221 0
67 68 221 0
c gate 222 -65 -66 0
-65 -222 0
-66 -222 0
65 66 222 0
c gate 223 221 222 0
221 -223 0
222 -223 0
-221 -222 223 0
c gate 224 -71 -72 0
-71 -224 0
-72 -224 0
71 72 224 0
c gate 225 -69 -70 0
-69 -225 0
-70 -225 0
69 70 225 0
c gate 226 224 225 0
224 -226 0
225 -226 0
-224 -225 226 0
c gate 227 223 226 0
223 -227 0
226 -227 0
-223 -226 227 0
c gate 228 -62 -64 0
-62 -228 0
-64 -228 0
62 64 228 0
c gate 229 -60 -61 0
-60 -229 0
-61 -229 0
60 61 229 0
c gate 230 -58 -59 0
-58 -230 0
-59 -230 0
58 59 230 0
c gate 231 229 -230 0
229 -231 0
-230 -231 0
-229 230 231 0
c gate 232 228 -231 0
228 -232 0
-231 -232 0
-228 231 232 0
c gate 233 228 229 0
228 -233 0
229 -233 0
-228 -229 233 0
c gate 234 222 233 0
222 -234 0
233 -234 0
-222 -233 234 0
c gate 235 -56 -57 0
-56 -235 0
-57 -235 0
56 57 235 0
c gate 236 230 235 0
230 -236 0
235 -236 0
-230 -235 236 0
c gate 237 234 236 0
234 -237 0
236 -237 0
-234 -236 237 0
c gate 238 221 237 0
221 -238 0
237 -238 0
-221 -237 238 0
c gate 239 226 238 0
226 -239 0
238 -239 0
-226 -238 239 0
c gate 240 -54 -55 0
-54 -240 0
-55 -240 0
54 55 240 0
c gate 241 -51 -53 0
-51 -241 0
-53 -241 0
51 53 241 0
c gate 242 -49 -50 0
-49 -242 0
-50 -242 0
49 50 242 0
c gate 243 -47 -48 0
-47 -243 0
-48 -243 0
47 48 243 0
c gate 244 -45 -46 0
-45 -244 0
-46 -244 0
45 46 244 0
c gate 245 -43 -44 0
-43 -245 0
-44 -245 0
43 44 245 0
c gate 246 -40 -42 0
-40 -246 0
-42 -246 0
40 42 246 0
c gate 247 -38 -39 0
-38 -247 0
-39 -247 0
38 39 247 0
c gate 248 -36 -37 0
-36 -248 0
-37 -248 0
36 37 248 0
c gate 249 -34 -35 0
-34 -249 0
-35 -249 0
34 35 249 0
c gate 250 -13 -24 0
-13 -250 0
-24 -250 0
13 24 250 0
c gate 251 -96 -107 0
-96 -251 0
-107 -251 0
96 107 251 0
c gate 252 -74 -85 0
-74 -252 0
-85 -252 0
74 85 252 0
c gate 253 -52 -63 0
-52 -253 0
-63 -253 0
52 63 253 0
c gate 254 252 -253 0
252 -254 0
-253 -254 0
-252 253 254 0
c gate 255 251 -254 0
251 -255 0
-254 -255 0
-251 254 255 0
c gate 256 240 241 0
240 -256 0
241 -256 0
-240 -241 256 0
c gate 257 242 243 0
242 -257 0
243 -257 0
-242 -243 257 0
c gate 258 256 257 0
256 -258 0
257 -258 0
-256 -257 258 0
c gate 259 223 -233 0
223 -259 0
-233 -259 0
-223 233 259 0
c gate 260 43 44 0
43 -260 0
44 -260 0
-43 -44 260 0
c gate 261 45 46 0
45 -261 0
46 -261 0
-45 -46 261 0
c gate 262 260 261 0
260 -262 0
261 -262 0
-260 -261 262 0
c gate 263 259 -262 0
259 -263 0
-262 -263 0
-259 262 263 0
c gate 264 244 245 0
244 -264 0
245 -264 0
-244 -245 264 0
c gate 265 -259 -264 0
-259 -265 0
-264 -265 0
259 264 265 0
c gate 266 246 247 0
246 -266 0
247 -266 0
-246 -247 266 0
c gate 267 -265 266 0
-265 -267 0
266 -267 0
265 -266 267 0
c gate 268 -263 267 0
-263 -268 0
267 -268 0
263 -267 268 0
c gate 269 258 268 0
258 -269 0
268 -269 0
-258 -268 269 0
c gate 270 239 -269 0
239 -270 0
-269 -270 0
-239 269 270 0
c gate 271 239 258 0
239 -271 0
258 -271 0
-239 -258 271 0
c gate 272 248 249 0
248 -272 0
249 -272 0
-248 -249 272 0
c gate 273 -2 -118 0
-2 -273 0
-118 -273 0
2 118 273 0
c gate 274 250 273 0
250 -274 0
273 -274 0
-250 -273 274 0
c gate 275 272 274 0
272 -275 0
274 -275 0
-272 -274 275 0
c gate 276 271 275 0
271 -276 0
275 -276 0
-271 -275 276 0
c gate 277 -270 276 0
-270 -277 0
276 -277 0
270 -276 277 0
c gate 278 -255 277 0
-255 -278 0
277 -278 0
255 -277 278 0
c gate 279 250 -278 0
250 -279 0
-278 -279 0
-250 278 279 0
c gate 280 249 -279 0
249 -280 0
-279 -280 0
-249 279 280 0
c gate 281 248 -280 0
248 -281 0
-280 -281 0
-248 280 281 0
c gate 282 247 -281 0
247 -282 0
-281 -282 0
-247 281 282 0
c gate 283 246 -282 0
246 -283 0
-282 -283 0
-246 282 283 0
c gate 284 245 -283 0
245 -284 0
-283 -284 0
-245 283 284 0
c gate 285 244 -284 0
244 -285 0
-284 -285 0
-244 284 285 0
c gate 286 243 -285 0
243 -286 0
-285 -286 0
-243 285 286 0
c gate 287 242 -286 0
242 -287 0
-286 -287 0
-242 286 287 0
c gate 288 241 -287 0
241 -288 0
-287 -288 0
-241 287 288 0
c gate 289 240 -288 0
240 -289 0
-288 -289 0
-240 288 289 0
c gate 290 239 -289 0
239 -290 0
-289 -290 0
-239 289 290 0
c gate 291 232 -290 0
232 -291 0
-290 -291 0
-232 290 291 0
c gate 292 227 -291 0
227 -292 0
-291 -292 0
-227 291 292 0
c gate 293 -221 225 0
-221 -293 0
225 -293 0
221 -225 293 0
c gate 294 224 -293 0
224 -294 0
-293 -294 0
-224 293 294 0
c gate 295 -292 294 0
-292 -295 0
294 -295 0
292 -294 295 0
c gate 296 220 -295 0
220 -296 0
-295 -296 0
-220 295 296 0
c gate 297 -76 -77 0
-76 -297 0
-77 -297 0
76 77 297 0
c gate 298 218 -297 0
218 -298 0
-297 -298 0
-218 297 298 0
c gate 299 217 -298 0
217 -299 0
-298 -299 0
-217 298 299 0
c gate 300 -296 299 0
-296 -300 0
299 -300 0
296 -299 300 0
c gate 301 215 -300 0
215 -301 0
-300 -301 0
-215 300 301 0
c gate 302 212 -301 0
212 -302 0
-301 -302 0
-212 301 302 0
c gate 303 204 -302 0
204 -303 0
-302 -303 0
-204 302 303 0
c gate 304 192 -303 0
192 -304 0
-303 -304 0
-192 303 304 0
c gate 305 190 191 0
190 -305 0
191 -305 0
-190 -191 305 0
c gate 306 202 305 0
202 -306 0
305 -306 0
-202 -305 306 0
c gate 307 -106 -108 0
-106 -307 0
-108 -307 0
106 108 307 0
c gate 308 -104 -105 0
-104 -308 0
-105 -308 0
104 105 308 0
c gate 309 307 308 0
307 -309 0
308 -309 0
-307 -308 309 0
c gate 310 306 -309 0
306 -310 0
-309 -310 0
-306 309 310 0
c gate 311 184 185 0
184 -311 0
185 -311 0
-184 -185 311 0
c gate 312 186 187 0
186 -312 0
187 -312 0
-186 -187 312 0
c gate 313 311 312 0
311 -313 0
312 -313 0
-311 -312 313 0
c gate 314 181 -313 0
181 -314 0
-313 -314 0
-181 313 314 0
c gate 315 178 314 0
178 -315 0
314 -315 0
-178 -314 315 0
c gate 316 188 189 0
188 -316 0
189 -316 0
-188 -189 316 0
c gate 317 -315 316 0
-315 -317 0
316 -317 0
315 -316 317 0
c gate 318 -310 317 0
-310 -318 0
317 -318 0
310 -317 318 0
c gate 319 -102 -103 0
-102 -319 0
-103 -319 0
102 103 319 0
c gate 320 -100 -101 0
-100 -320 0
-101 -320 0
100 101 320 0
c gate 321 319 320 0
319 -321 0
320 -321 0
-319 -320 321 0
c gate 322 306 -321 0
306 -322 0
-321 -322 0
-306 321 322 0
c gate 323 318 -322 0
318 -323 0
-322 -323 0
-318 322 323 0
c gate 324 -98 -99 0
-98 -324 0
-99 -324 0
98 99 324 0
c gate 325 -95 -97 0
-95 -325 0
-97 -325 0
95 97 325 0
c gate 326 324 325 0
324 -326 0
325 -326 0
-324 -325 326 0
c gate 327 307 326 0
307 -327 0
326 -327 0
-307 -326 327 0
c gate 328 323 327 0
323 -328 0
327 -328 0
-323 -327 328 0
c gate 329 -304 328 0
-304 -329 0
328 -329 0
304 -328 329 0
c gate 330 318 -319 0
318 -330 0
-319 -330 0
-318 319 330 0
c gate 331 307 -330 0
307 -331 0
-330 -331 0
-307 330 331 0
c gate 332 323 -324 0
323 -332 0
-324 -332 0
-323 324 332 0
c gate 333 331 -332 0
331 -333 0
-332 -333 0
-331 332 333 0
c gate 334 -329 333 0
-329 -334 0
333 -334 0
329 -333 334 0
c gate 335 191 -334 0
191 -335 0
-334 -335 0
-191 334 335 0
c gate 336 190 -335 0
190 -336 0
-335 -336 0
-190 335 336 0
c gate 337 189 -336 0
189 -337 0
-336 -337 0
-189 336 337 0
c gate 338 188 -337 0
188 -338 0
-337 -338 0
-188 337 338 0
c gate 339 187 -338 0
187 -339 0
-338 -339 0
-187 338 339 0
c gate 340 186 -339 0
186 -340 0
-339 -340 0
-186 339 340 0
c gate 341 185 -340 0
185 -341 0
-340 -341 0
-185 340 341 0
c gate 342 184 -341 0
184 -342 0
-341 -342 0
-184 341 342 0
c gate 343 183 -342 0
183 -343 0
-342 -343 0
-183 342 343 0
c gate 344 173 -343 0
173 -344 0
-343 -344 0
-173 343 344 0
c gate 345 -25 -344 0
-25 -345 0
-344 -345 0
25 344 345 0
c gate 346 154 -345 0
154 -346 0
-345 -346 0
-154 345 346 0
c gate 347 156 -346 0
156 -347 0
-346 -347 0
-156 346 347 0
c gate 348 -25 27 0
-25 -348 0
27 -348 0
25 -27 348 0
c gate 349 154 348 0
154 -349 0
348 -349 0
-154 -348 349 0
c gate 350 344 349 0
344 -350 0
349 -350 0
-344 -349 350 0
c gate 351 -23 -350 0
-23 -351 0
-350 -351 0
23 350 351 0
c gate 352 -347 351 0
-347 -352 0
351 -352 0
347 -351 352 0
c gate 353 245 -246 0
245 -353 0
-246 -353 0
-245 246 353 0
c gate 354 244 -353 0
244 -354 0
-353 -354 0
-244 353 354 0
c gate 355 243 -354 0
243 -355 0
-354 -355 0
-243 354 355 0
c gate 356 242 -355 0
242 -356 0
-355 -356 0
-242 355 356 0
c gate 357 241 -356 0
241 -357 0
-356 -357 0
-241 356 357 0
c gate 358 240 -357 0
240 -358 0
-357 -358 0
-240 357 358 0
c gate 359 238 -358 0
238 -359 0
-358 -359 0
-238 358 359 0
c gate 360 232 -359 0
232 -360 0
-359 -360 0
-232 359 360 0
c gate 361 222 -360 0
222 -361 0
-360 -361 0
-222 360 361 0
c gate 362 221 224 0
221 -362 0
224 -362 0
-221 -224 362 0
c gate 363 -361 362 0
-361 -363 0
362 -363 0
361 -362 363 0
c gate 364 216 -363 0
216 -364 0
-363 -364 0
-216 363 364 0
c gate 365 297 -364 0
297 -365 0
-364 -365 0
-297 364 365 0
c gate 366 218 -365 0
218 -366 0
-365 -366 0
-218 365 366 0
c gate 367 217 -366 0
217 -367 0
-366 -367 0
-217 366 367 0
c gate 368 215 -367 0
215 -368 0
-367 -368 0
-215 367 368 0
c gate 369 212 -368 0
212 -369 0
-368 -369 0
-212 368 369 0
c gate 370 204 -369 0
204 -370 0
-369 -370 0
-204 369 370 0
c gate 371 192 -370 0
192 -371 0
-370 -371 0
-192 370 371 0
c gate 372 325 -371 0
325 -372 0
-371 -372 0
-325 371 372 0
c gate 373 324 -372 0
324 -373 0
-372 -373 0
-324 372 373 0
c gate 374 323 -373 0
323 -374 0
-373 -374 0
-323 373 374 0
c gate 375 331 -374 0
331 -375 0
-374 -375 0
-331 374 375 0
c gate 376 191 -375 0
191 -376 0
-375 -376 0
-191 375 376 0
c gate 377 190 -376 0
190 -377 0
-376 -377 0
-190 376 377 0
c gate 378 189 -377 0
189 -378 0
-377 -378 0
-189 377 378 0
c gate 379 188 -378 0
188 -379 0
-378 -379 0
-188 378 379 0
c gate 380 187 -379 0
187 -380 0
-379 -380 0
-187 379 380 0
c gate 381 186 -380 0
186 -381 0
-380 -381 0
-186 380 381 0
c gate 382 185 -381 0
185 -382 0
-381 -382 0
-185 381 382 0
c gate 383 184 -382 0
184 -383 0
-382 -383 0
-184 382 383 0
c gate 384 183 -383 0
183 -384 0
-383 -384 0
-183 383 384 0
c gate 385 173 -384 0
173 -385 0
-384 -385 0
-173 384 385 0
c gate 386 -25 -385 0
-25 -386 0
-385 -386 0
25 385 386 0
c gate 387 154 -386 0
154 -387 0
-386 -387 0
-154 386 387 0
c gate 388 156 -387 0
156 -388 0
-387 -388 0
-156 387 388 0
c gate 389 349 385 0
349 -389 0
385 -389 0
-349 -385 389 0
c gate 390 -23 -389 0
-23 -390 0
-389 -390 0
23 389 390 0
c gate 391 -388 390 0
-388 -391 0
390 -391 0
388 -390 391 0
c gate 392 -352 391 0
-352 -392 0
391 -392 0
352 -391 392 0
c gate 393 352 -391 0
352 -393 0
-391 -393 0
-352 391 393 0
c gate 394 -392 -393 0
-392 -394 0
-393 -394 0
392 393 394 0
c gate 395 23 -134 0
23 -395 0
-134 -395 0
-23 134 395 0
c gate 396 -21 -395 0
-21 -396 0
-395 -396 0
21 395 396 0
c gate 397 198 396 0
198 -397 0
396 -397 0
-198 -396 397 0
c gate 398 -394 397 0
-394 -398 0
397 -398 0
394 -397 398 0
c gate 399 -29 196 0
-29 -399 0
196 -399 0
29 -196 399 0
c gate 400 -182 399 0
-182 -400 0
399 -400 0
182 -399 400 0
c gate 401 202 -400 0
202 -401 0
-400 -401 0
-202 400 401 0
c gate 402 112 317 0
112 -402 0
317 -402 0
-112 -317 402 0
c gate 403 114 -115 0
114 -403 0
-115 -403 0
-114 115 403 0
c gate 404 -116 -403 0
-116 -404 0
-403 -404 0
116 403 404 0
c gate 405 -117 -404 0
-117 -405 0
-404 -405 0
117 404 405 0
c gate 406 -119 -405 0
-119 -406 0
-405 -406 0
119 405 406 0
c gate 407 -120 -406 0
-120 -407 0
-406 -407 0
120 406 407 0
c gate 408 -121 -407 0
-121 -408 0
-407 -408 0
121 407 408 0
c gate 409 311 -408 0
311 -409 0
-408 -409 0
-311 408 409 0
c gate 410 123 -124 0
123 -410 0
-124 -410 0
-123 124 410 0
c gate 411 -125 -410 0
-125 -411 0
-410 -411 0
125 410 411 0
c gate 412 -409 411 0
-409 -412 0
411 -412 0
409 -411 412 0
c gate 413 -402 412 0
-402 -413 0
412 -413 0
402 -412 413 0
c gate 414 190 317 0
190 -414 0
317 -414 0
-190 -317 414 0
c gate 415 105 -106 0
105 -415 0
-106 -415 0
-105 106 415 0
c gate 416 -108 -415 0
-108 -416 0
-415 -416 0
108 415 416 0
c gate 417 -109 -416 0
-109 -417 0
-416 -417 0
109 416 417 0
c gate 418 -110 -417 0
-110 -418 0
-417 -418 0
110 417 418 0
c gate 419 191 309 0
191 -419 0
309 -419 0
-191 -309 419 0
c gate 420 101 -102 0
101 -420 0
-102 -420 0
-101 102 420 0
c gate 421 -103 -420 0
-103 -421 0
-420 -421 0
103 420 421 0
c gate 422 94 326 0
94 -422 0
326 -422 0
-94 -326 422 0
c gate 423 97 -98 0
97 -423 0
-98 -423 0
-97 98 423 0
c gate 424 -99 -423 0
-99 -424 0
-423 -424 0
99 423 424 0
c gate 425 -422 424 0
-422 -425 0
424 -425 0
422 -424 425 0
c gate 426 192 326 0
192 -426 0
326 -426 0
-192 -326 426 0
c gate 427 90 -91 0
90 -427 0
-91 -427 0
-90 91 427 0
c gate 428 -92 -427 0
-92 -428 0
-427 -428 0
92 427 428 0
c gate 429 203 205 0
203 -429 0
205 -429 0
-203 -205 429 0
c gate 430 83 -84 0
83 -430 0
-84 -430 0
-83 84 430 0
c gate 431 -86 -430 0
-86 -431 0
-430 -431 0
86 430 431 0
c gate 432 -87 -431 0
-87 -432 0
-431 -432 0
87 431 432 0
c gate 433 -88 -432 0
-88 -433 0
-432 -433 0
88 432 433 0
c gate 434 206 214 0
206 -434 0
214 -434 0
-206 -214 434 0
c gate 435 79 -80 0
79 -435 0
-80 -435 0
-79 80 435 0
c gate 436 -81 -435 0
-81 -436 0
-435 -436 0
81 435 436 0
c gate 437 72 -73 0
72 -437 0
-73 -437 0
-72 73 437 0
c gate 438 -75 -437 0
-75 -438 0
-437 -438 0
75 437 438 0
c gate 439 -76 -438 0
-76 -439 0
-438 -439 0
76 438 439 0
c gate 440 -77 -439 0
-77 -440 0
-439 -440 0
77 439 440 0
c gate 441 216 297 0
216 -441 0
297 -441 0
-216 -297 441 0
c gate 442 224 441 0
224 -442 0
441 -442 0
-224 -441 442 0
c gate 443 61 -62 0
61 -443 0
-62 -443 0
-61 62 443 0
c gate 444 -64 -443 0
-64 -444 0
-443 -444 0
64 443 444 0
c gate 445 -65 -444 0
-65 -445 0
-444 -445 0
65 444 445 0
c gate 446 -66 -445 0
-66 -446 0
-445 -446 0
66 445 446 0
c gate 447 57 -58 0
57 -447 0
-58 -447 0
-57 58 447 0
c gate 448 -59 -447 0
-59 -448 0
-447 -448 0
59 447 448 0
c gate 449 50 256 0
50 -449 0
256 -449 0
-50 -256 449 0
c gate 450 53 -54 0
53 -450 0
-54 -450 0
-53 54 450 0
c gate 451 -55 -450 0
-55 -451 0
-450 -451 0
55 450 451 0
c gate 452 -449 451 0
-449 -452 0
451 -452 0
449 -451 452 0
c gate 453 242 256 0
242 -453 0
256 -453 0
-242 -256 453 0
c gate 454 46 -47 0
46 -454 0
-47 -454 0
-46 47 454 0
c gate 455 -48 -454 0
-48 -455 0
-454 -455 0
48 454 455 0
c gate 456 243 244 0
243 -456 0
244 -456 0
-243 -244 456 0
c gate 457 39 -40 0
39 -457 0
-40 -457 0
-39 40 457 0
c gate 458 -42 -457 0
-42 -458 0
-457 -458 0
42 457 458 0
c gate 459 -43 -458 0
-43 -459 0
-458 -459 0
43 458 459 0
c gate 460 -44 -459 0
-44 -460 0
-459 -460 0
44 459 460 0
c gate 461 245 266 0
245 -461 0
266 -461 0
-245 -266 461 0
c gate 462 35 -36 0
35 -462 0
-36 -462 0
-35 36 462 0
c gate 463 -37 -462 0
-37 -463 0
-462 -463 0
37 462 463 0
c gate 464 107 -118 0
107 -464 0
-118 -464 0
-107 118 464 0
c gate 465 -2 -464 0
-2 -465 0
-464 -465 0
2 464 465 0
c gate 466 -13 -465 0
-13 -466 0
-465 -466 0
13 465 466 0
c gate 467 -24 -466 0
-24 -467 0
-466 -467 0
24 466 467 0
c gate 468 41 -52 0
41 -468 0
-52 -468 0
-41 52 468 0
c gate 469 -63 -468 0
-63 -469 0
-468 -469 0
63 468 469 0
c gate 470 -74 -469 0
-74 -470 0
-469 -470 0
74 469 470 0
c gate 471 -85 -470 0
-85 -471 0
-470 -471 0
85 470 471 0
c gate 472 251 274 0
251 -472 0
274 -472 0
-251 -274 472 0
c gate 473 -471 472 0
-471 -473 0
472 -473 0
471 -472 473 0
c gate 474 467 -473 0
467 -474 0
-473 -474 0
-467 473 474 0
c gate 475 272 -474 0
272 -475 0
-474 -475 0
-272 474 475 0
c gate 476 463 -475 0
463 -476 0
-475 -476 0
-463 475 476 0
c gate 477 461 -476 0
461 -477 0
-476 -477 0
-461 476 477 0
c gate 478 460 -477 0
460 -478 0
-477 -478 0
-460 477 478 0
c gate 479 456 -478 0
456 -479 0
-478 -479 0
-456 478 479 0
c gate 480 455 -479 0
455 -480 0
-479 -480 0
-455 479 480 0
c gate 481 453 -480 0
453 -481 0
-480 -481 0
-453 480 481 0
c gate 482 452 -481 0
452 -482 0
-481 -482 0
-452 481 482 0
c gate 483 236 -482 0
236 -483 0
-482 -483 0
-236 482 483 0
c gate 484 448 -483 0
448 -484 0
-483 -484 0
-448 483 484 0
c gate 485 234 -484 0
234 -485 0
-484 -485 0
-234 484 485 0
c gate 486 446 -485 0
446 -486 0
-485 -486 0
-446 485 486 0
c gate 487 -67 -486 0
-67 -487 0
-486 -487 0
67 486 487 0
c gate 488 -68 -487 0
-68 -488 0
-487 -488 0
68 487 488 0
c gate 489 -69 -488 0
-69 -489 0
-488 -489 0
69 488 489 0
c gate 490 -70 -489 0
-70 -490 0
-489 -490 0
70 489 490 0
c gate 491 442 -490 0
442 -491 0
-490 -491 0
-442 490 491 0
c gate 492 440 -491 0
440 -492 0
-491 -492 0
-440 491 492 0
c gate 493 219 -492 0
219 -493 0
-492 -493 0
-219 492 493 0
c gate 494 436 -493 0
436 -494 0
-493 -494 0
-436 493 494 0
c gate 495 434 -494 0
434 -495 0
-494 -495 0
-434 494 495 0
c gate 496 433 -495 0
433 -496 0
-495 -496 0
-433 495 496 0
c gate 497 429 -496 0
429 -497 0
-496 -497 0
-429 496 497 0
c gate 498 428 -497 0
428 -498 0
-497 -498 0
-428 497 498 0
c gate 499 426 -498 0
426 -499 0
-498 -499 0
-426 498 499 0
c gate 500 425 -499 0
425 -500 0
-499 -500 0
-425 499 500 0
c gate 501 321 -500 0
321 -501 0
-500 -501 0
-321 500 501 0
c gate 502 421 -501 0
421 -502 0
-501 -502 0
-421 501 502 0
c gate 503 419 -502 0
419 -503 0
-502 -503 0
-419 502 503 0
c gate 504 418 -503 0
418 -504 0
-503 -504 0
-418 503 504 0
c gate 505 414 -504 0
414 -505 0
-504 -505 0
-414 504 505 0
c gate 506 413 -505 0
413 -506 0
-505 -506 0
-413 505 506 0
c gate 507 401 -506 0
401 -507 0
-506 -507 0
-401 506 507 0
c gate 508 127 -128 0
127 -508 0
-128 -508 0
-127 128 508 0
c gate 509 -3 -508 0
-3 -509 0
-508 -509 0
3 508 509 0
c gate 510 -4 -509 0
-4 -510 0
-509 -510 0
4 509 510 0
c gate 511 -5 -510 0
-5 -511 0
-510 -511 0
5 510 511 0
c gate 512 -6 -511 0
-6 -512 0
-511 -512 0
6 511 512 0
c gate 513 -7 -512 0
-7 -513 0
-512 -513 0
7 512 513 0
c gate 514 -8 -513 0
-8 -514 0
-513 -514 0
8 513 514 0
c gate 515 -9 -514 0
-9 -515 0
-514 -515 0
9 514 515 0
c gate 516 -10 -515 0
-10 -516 0
-515 -516 0
10 515 516 0
c gate 517 -11 -516 0
-11 -517 0
-516 -517 0
11 516 517 0
c gate 518 179 -517 0
179 -518 0
-517 -518 0
-179 517 518 0
c gate 519 14 -15 0
14 -519 0
-15 -519 0
-14 15 519 0
c gate 520 -16 -519 0
-16 -520 0
-519 -520 0
16 519 520 0
c gate 521 -518 520 0
-518 -521 0
520 -521 0
518 -520 521 0
c gate 522 174 -521 0
174 -522 0
-521 -522 0
-174 521 522 0
c gate 523 18 -19 0
18 -523 0
-19 -523 0
-18 19 523 0
c gate 524 -20 -523 0
-20 -524 0
-523 -524 0
20 523 524 0
c gate 525 -522 524 0
-522 -525 0
524 -525 0
522 -524 525 0
c gate 526 -21 -525 0
-21 -526 0
-525 -526 0
21 525 526 0
c gate 527 -22 -526 0
-22 -527 0
-526 -527 0
22 526 527 0
c gate 528 134 149 0
134 -528 0
149 -528 0
-134 -149 528 0
c gate 529 -527 528 0
-527 -529 0
528 -529 0
527 -528 529 0
c gate 530 25 -26 0
25 -530 0
-26 -530 0
-25 26 530 0
c gate 531 -27 -530 0
-27 -531 0
-530 -531 0
27 530 531 0
c gate 532 -529 531 0
-529 -532 0
531 -532 0
529 -531 532 0
c gate 533 193 -532 0
193 -533 0
-532 -533 0
-193 532 533 0
c gate 534 196 533 0
196 -534 0
533 -534 0
-196 -533 534 0
c gate 535 507 -534 0
507 -535 0
-534 -535 0
-507 534 535 0
c gate 536 29 -30 0
29 -536 0
-30 -536 0
-29 30 536 0
c gate 537 -31 -536 0
-31 -537 0
-536 -537 0
31 536 537 0
c gate 538 -32 -537 0
-32 -538 0
-537 -538 0
32 537 538 0
c gate 539 -507 534 0
-507 -539 0
534 -539 0
507 -534 539 0
c gate 540 -538 -539 0
-538 -540 0
-539 -540 0
538 539 540 0
c gate 541 -535 540 0
-535 -541 0
540 -541 0
535 -540 541 0
c gate 542 272 -467 0
272 -542 0
-467 -542 0
-272 467 542 0
c gate 543 463 -542 0
463 -543 0
-542 -543 0
-463 542 543 0
c gate 544 461 -543 0
461 -544 0
-543 -544 0
-461 543 544 0
c gate 545 460 -544 0
460 -545 0
-544 -545 0
-460 544 545 0
c gate 546 456 -545 0
456 -546 0
-545 -546 0
-456 545 546 0
c gate 547 455 -546 0
455 -547 0
-546 -547 0
-455 546 547 0
c gate 548 453 -547 0
453 -548 0
-547 -548 0
-453 547 548 0
c gate 549 452 -548 0
452 -549 0
-548 -549 0
-452 548 549 0
c gate 550 236 -549 0
236 -550 0
-549 -550 0
-236 549 550 0
c gate 551 448 -550 0
448 -551 0
-550 -551 0
-448 550 551 0
c gate 552 234 -551 0
234 -552 0
-551 -552 0
-234 551 552 0
c gate 553 446 -552 0
446 -553 0
-552 -553 0
-446 552 553 0
c gate 554 -67 -553 0
-67 -554 0
-553 -554 0
67 553 554 0
c gate 555 -68 -554 0
-68 -555 0
-554 -555 0
68 554 555 0
c gate 556 -69 -555 0
-69 -556 0
-555 -556 0
69 555 556 0
c gate 557 -70 -556 0
-70 -557 0
-556 -557 0
70 556 557 0
c gate 558 442 -557 0
442 -558 0
-557 -558 0
-442 557 558 0
c gate 559 440 -558 0
440 -559 0
-558 -559 0
-440 558 559 0
c gate 560 219 -559 0
219 -560 0
-559 -560 0
-219 559 560 0
c gate 561 436 -560 0
436 -561 0
-560 -561 0
-436 560 561 0
c gate 562 434 -561 0
434 -562 0
-561 -562 0
-434 561 562 0
c gate 563 433 -562 0
433 -563 0
-562 -563 0
-433 562 563 0
c gate 564 429 -563 0
429 -564 0
-563 -564 0
-429 563 564 0
c gate 565 428 -564 0
428 -565 0
-564 -565 0
-428 564 565 0
c gate 566 426 -565 0
426 -566 0
-565 -566 0
-426 565 566 0
c gate 567 425 -566 0
425 -567 0
-566 -567 0
-425 566 567 0
c gate 568 321 -567 0
321 -568 0
-567 -568 0
-321 567 568 0
c gate 569 421 -568 0
421 -569 0
-568 -569 0
-421 568 569 0
c gate 570 419 -569 0
419 -570 0
-569 -570 0
-419 569 570 0
c gate 571 418 -570 0
418 -571 0
-570 -571 0
-418 570 571 0
c gate 572 414 -571 0
414 -572 0
-571 -572 0
-414 571 572 0
c gate 573 413 -572 0
413 -573 0
-572 -573 0
-413 572 573 0
c gate 574 401 -573 0
401 -574 0
-573 -574 0
-401 573 574 0
c gate 575 -30 533 0
-30 -575 0
533 -575 0
30 -533 575 0
c gate 576 537 -575 0
537 -576 0
-575 -576 0
-537 575 576 0
c gate 577 -574 576 0
-574 -577 0
576 -577 0
574 -576 577 0
c gate 578 -32 -577 0
-32 -578 0
-577 -578 0
32 577 578 0
c gate 579 32 399 0
32 -579 0
399 -579 0
-32 -399 579 0
c gate 580 -578 -579 0
-578 -580 0
-579 -580 0
578 579 580 0
c gate 581 -541 580 0
-541 -581 0
580 -581 0
541 -580 581 0
c gate 582 541 578 0
541 -582 0
578 -582 0
-541 -578 582 0
c gate 583 -581 -582 0
-581 -583 0
-582 -583 0
581 582 583 0
c gate 584 -398 583 0
-398 -584 0
583 -584 0
398 -583 584 0
c gate 585 -33 -584 0
-33 -585 0
-584 -585 0
33 584 585 0
c gate 586 220 297 0
220 -586 0
297 -586 0
-220 -297 586 0
c gate 587 182 586 0
182 -587 0
586 -587 0
-182 -586 587 0
c gate 588 215 587 0
215 -588 0
587 -588 0
-215 -587 588 0
c gate 589 258 -268 0
258 -589 0
-268 -589 0
-258 268 589 0
c gate 590 237 -589 0
237 -590 0
-589 -590 0
-237 589 590 0
c gate 591 223 -590 0
223 -591 0
-590 -591 0
-223 590 591 0
c gate 592 588 -591 0
588 -592 0
-591 -592 0
-588 591 592 0
c gate 593 208 -215 0
208 -593 0
-215 -593 0
-208 215 593 0
c gate 594 -592 -593 0
-592 -594 0
-593 -594 0
592 593 594 0
c gate 595 326 -594 0
326 -595 0
-594 -595 0
-326 594 595 0
c gate 596 323 -595 0
323 -596 0
-595 -596 0
-323 595 596 0
c gate 597 306 317 0
306 -597 0
317 -597 0
-306 -317 597 0
c gate 598 182 597 0
182 -598 0
597 -598 0
-182 -597 598 0
c gate 599 -596 598 0
-596 -599 0
598 -599 0
596 -598 599 0
c gate 600 181 -315 0
181 -600 0
-315 -600 0
-181 315 600 0
c gate 601 202 -600 0
202 -601 0
-600 -601 0
-202 600 601 0
c gate 602 200 -601 0
200 -602 0
-601 -602 0
-200 601 602 0
c gate 603 -599 602 0
-599 -603 0
602 -603 0
599 -602 603 0
c gate 604 -202 -314 0
-202 -604 0
-314 -604 0
202 314 604 0
c gate 605 178 -604 0
178 -605 0
-604 -605 0
-178 604 605 0
c gate 606 -270 -277 0
-270 -606 0
-277 -606 0
270 277 606 0
c gate 607 588 606 0
588 -607 0
606 -607 0
-588 -606 607 0
c gate 608 -66 -607 0
-66 -608 0
-607 -608 0
66 607 608 0
c gate 609 271 -608 0
271 -609 0
-608 -609 0
-271 608 609 0
c gate 610 238 -258 0
238 -610 0
-258 -610 0
-238 258 610 0
c gate 611 227 -610 0
227 -611 0
-610 -611 0
-227 610 611 0
c gate 612 588 -611 0
588 -612 0
-611 -612 0
-588 611 612 0
c gate 613 -609 -612 0
-609 -613 0
-612 -613 0
609 612 613 0
c gate 614 306 323 0
306 -614 0
323 -614 0
-306 -323 614 0
c gate 615 326 614 0
326 -615 0
614 -615 0
-326 -614 615 0
c gate 616 192 203 0
192 -616 0
203 -616 0
-192 -203 616 0
c gate 617 615 616 0
615 -617 0
616 -617 0
-615 -616 617 0
c gate 618 215 -617 0
215 -618 0
-617 -618 0
-215 617 618 0
c gate 619 -613 -618 0
-613 -619 0
-618 -619 0
613 618 619 0
c gate 620 -208 -613 0
-208 -620 0
-613 -620 0
208 613 620 0
c gate 621 -323 -620 0
-323 -621 0
-620 -621 0
323 620 621 0
c gate 622 -215 617 0
-215 -622 0
617 -622 0
215 -617 622 0
c gate 623 -621 -622 0
-621 -623 0
-622 -623 0
621 622 623 0
c gate 624 597 -623 0
597 -624 0
-623 -624 0
-597 623 624 0
c gate 625 -619 -624 0
-619 -625 0
-624 -625 0
619 624 625 0
c gate 626 202 -313 0
202 -626 0
-313 -626 0
-202 313 626 0
c gate 627 625 -626 0
625 -627 0
-626 -627 0
-625 626 627 0
c gate 628 605 -627 0
605 -628 0
-627 -628 0
-605 627 628 0
c gate 629 -181 202 0
-181 -629 0
202 -629 0
181 -202 629 0
c gate 630 -200 625 0
-200 -630 0
625 -630 0
200 -625 630 0
c gate 631 -629 -630 0
-629 -631 0
-630 -631 0
629 630 631 0
c gate 632 -628 631 0
-628 -632 0
631 -632 0
628 -631 632 0
c gate 633 -603 -632 0
-603 -633 0
-632 -633 0
603 632 633 0
c gate 634 603 632 0
603 -634 0
632 -634 0
-603 -632 634 0
c gate 635 -633 -634 0
-633 -635 0
-634 -635 0
633 634 635 0
c gate 636 266 -272 0
266 -636 0
-272 -636 0
-266 272 636 0
c gate 637 264 -636 0
264 -637 0
-636 -637 0
-264 636 637 0
c gate 638 257 -637 0
257 -638 0
-637 -638 0
-257 637 638 0
c gate 639 256 -638 0
256 -639 0
-638 -639 0
-256 638 639 0
c gate 640 238 -639 0
238 -640 0
-639 -640 0
-238 639 640 0
c gate 641 -259 -640 0
-259 -641 0
-640 -641 0
259 640 641 0
c gate 642 588 -641 0
588 -642 0
-641 -642 0
-588 641 642 0
c gate 643 215 -219 0
215 -643 0
-219 -643 0
-215 219 643 0
c gate 644 -207 208 0
-207 -644 0
208 -644 0
207 -208 644 0
c gate 645 326 -644 0
326 -645 0
-644 -645 0
-326 644 645 0
c gate 646 -643 645 0
-643 -646 0
645 -646 0
643 -645 646 0
c gate 647 -642 646 0
-642 -647 0
646 -647 0
642 -646 647 0
c gate 648 614 -647 0
614 -648 0
-647 -648 0
-614 647 648 0
c gate 649 318 -648 0
318 -649 0
-648 -649 0
-318 648 649 0
c gate 650 -588 -644 0
-588 -650 0
-644 -650 0
588 644 650 0
c gate 651 251 252 0
251 -651 0
252 -651 0
-251 -252 651 0
c gate 652 277 -651 0
277 -652 0
-651 -652 0
-277 651 652 0
c gate 653 226 641 0
226 -653 0
641 -653 0
-226 -641 653 0
c gate 654 -652 653 0
-652 -654 0
653 -654 0
652 -653 654 0
c gate 655 209 654 0
209 -655 0
654 -655 0
-209 -654 655 0
c gate 656 -650 -655 0
-650 -656 0
-655 -656 0
650 655 656 0
c gate 657 -643 -656 0
-643 -657 0
-656 -657 0
643 656 657 0
c gate 658 615 -657 0
615 -658 0
-657 -658 0
-615 657 658 0
c gate 659 321 -326 0
321 -659 0
-326 -659 0
-321 326 659 0
c gate 660 597 659 0
597 -660 0
659 -660 0
-597 -659 660 0
c gate 661 318 -660 0
318 -661 0
-660 -661 0
-318 660 661 0
c gate 662 -658 661 0
-658 -662 0
661 -662 0
658 -661 662 0
c gate 663 649 -662 0
649 -663 0
-662 -663 0
-649 662 663 0
c gate 664 -649 662 0
-649 -664 0
662 -664 0
649 -662 664 0
c gate 665 -663 -664 0
-663 -665 0
-664 -665 0
663 664 665 0
c gate 666 600 605 0
600 -666 0
605 -666 0
-600 -605 666 0
c gate 667 -665 666 0
-665 -667 0
666 -667 0
665 -666 667 0
c gate 668 -1 -41 0
-1 -668 0
-41 -668 0
1 41 668 0
c gate 669 -97 668 0
-97 -669 0
668 -669 0
97 -668 669 0
c gate 670 253 669 0
253 -670 0
669 -670 0
-253 -669 670 0
c gate 671 277 670 0
277 -671 0
670 -671 0
-277 -670 671 0
c gate 672 597 671 0
597 -672 0
671 -672 0
-597 -671 672 0
c gate 673 -652 672 0
-652 -673 0
672 -673 0
652 -672 673 0
c gate 674 588 673 0
588 -674 0
673 -674 0
-588 -673 674 0
c gate 675 -226 238 0
-226 -675 0
238 -675 0
226 -238 675 0
c gate 676 588 675 0
588 -676 0
675 -676 0
-588 -675 676 0
c gate 677 -97 98 0
-97 -677 0
98 -677 0
97 -98 677 0
c gate 678 -423 -677 0
-423 -678 0
-677 -678 0
423 677 678 0
c gate 679 -676 678 0
-676 -679 0
678 -679 0
676 -678 679 0
c gate 680 182 616 0
182 -680 0
616 -680 0
-182 -616 680 0
c gate 681 -679 680 0
-679 -681 0
680 -681 0
679 -680 681 0
c gate 682 -674 -681 0
-674 -682 0
-681 -682 0
674 681 682 0
c gate 683 615 -682 0
615 -683 0
-682 -683 0
-615 682 683 0
c gate 684 -667 -683 0
-667 -684 0
-683 -684 0
667 683 684 0
c gate 685 -635 684 0
-635 -685 0
684 -685 0
635 -684 685 0
c gate 686 -585 685 0
-585 -686 0
685 -686 0
585 -685 686 0
c PO
-686 0
